Minimize
  14 x1 + 15 x2 + 0.021 y11_1 + 0.035 y11_2 + 0.014 y11_3 + 0.024 y12_1
   + 0.04 y12_2 + 0.016 y12_3 + 0.036 y13_1 + 0.06 y13_2 + 0.024 y13_3
   + 0.033 y21_1 + 0.055 y21_2 + 0.022 y21_3 + 0.021 y22_1 + 0.035 y22_2
   + 0.014 y22_3 + 0.012 y23_1 + 0.02 y23_2 + 0.008 y23_3
Subject To
 c1: 40 x1 + 40 x2 >= 600
 c2: 40 x1 + 40 x2 >= 750
 c3: 40 x1 + 40 x2 >= 900
 c4: 40 x1 - y11_1 - y12_1 - y13_1 >= -0
 c5: 40 x2 - y21_1 - y22_1 - y23_1 >= -0
 c6: 40 x1 - y11_2 - y12_2 - y13_2 >= -0
 c7: 40 x2 - y21_2 - y22_2 - y23_2 >= -0
 c8: 40 x1 - y11_3 - y12_3 - y13_3 >= -0
 c9: 40 x2 - y21_3 - y22_3 - y23_3 >= -0
 c10: y11_1 + y21_1 = 200
 c11: y12_1 + y22_1 = 240
 c12: y13_1 + y23_1 = 160
 c13: y11_2 + y21_2 = 250
 c14: y12_2 + y22_2 = 300
 c15: y13_2 + y23_2 = 200
 c16: y11_3 + y21_3 = 300
 c17: y12_3 + y22_3 = 360
 c18: y13_3 + y23_3 = 240
Bounds
 y11_1 <= 200
 y11_2 <= 250
 y11_3 <= 300
 y12_1 <= 240
 y12_2 <= 300
 y12_3 <= 360
 y13_1 <= 160
 y13_2 <= 200
 y13_3 <= 240
 y21_1 <= 200
 y21_2 <= 250
 y21_3 <= 300
 y22_1 <= 240
 y22_2 <= 300
 y22_3 <= 360
 y23_1 <= 160
 y23_2 <= 200
 y23_3 <= 240
Generals
 x1 x2 y11_1 y11_2 y11_3 y12_1 y12_2 y12_3 y13_1 y13_2 y13_3 y21_1 y21_2
 y21_3 y22_1 y22_2 y22_3 y23_1 y23_2 y23_3
End
